50

100 24 176
100 30 255
99 27 180
96 21 283
96 17 193
93 11 326
91 9 171
90 10 267
90 9 283
87 9 301
84 11 254
83 25 155
80 5 305
80 24 333
80 2 212
75 1 325
74 17 225
72 14 174
72 14 257
71 19 206
71 10 354
70 12 353
69 6 158
66 20 202
65 13 357
63 11 288
60 17 345
58 8 233
57 6 245
56 9 328
54 11 323
54 7 360
53 9 313
53 1 177
53 2 187
51 6 231
51 3 306
49 4 179
46 4 154
43 4 317
40 7 251
39 8 190
38 2 199
37 7 359
37 10 294
34 4 337
33 5 333
33 9 228
31 7 332
31 3 322
